Starting solution of the Linear programming relaxation problem using Primal Simplex

Coin0506I Presolve 21662 (-21621) rows, 820 (0) columns and 44882 (-43242) elements
Clp1000I sum of infeasibilities 2.73265e-05 - average 1.26149e-09, 605 fixed columns
Coin0506I Presolve 1141 (-20521) rows, 215 (-605) columns and 2630 (-42252) elements
Clp0006I 0  Obj 861.71552 Primal inf 4.4081187e-06 (12) Dual inf 6.2000001e+09 (203)
Clp0029I End of values pass after 215 iterations
Clp0014I Perturbing problem by 0.001% of 1.0000001 - largest nonzero change 2.9976735e-05 ( 0.0014988367%) - largest zero change 2.8834042e-05
Clp0000I Optimal - objective value 859.95356
Clp0000I Optimal - objective value 859.95356
Coin0511I After Postsolve, objective 859.95356, infeasibilities - dual 0 (0), primal 0 (0)
Clp0006I 0  Obj 859.95356
Clp0000I Optimal - objective value 859.95356
Clp0000I Optimal - objective value 859.95356
Clp0000I Optimal - objective value 859.95356
Coin0511I After Postsolve, objective 859.95356, infeasibilities - dual 0 (0), primal 0 (0)
Clp0032I Optimal objective 859.9535643 - 0 iterations time 0.632, Presolve 0.03, Idiot 0.59

Starting MIP optimization
Cbc0045I MIPStart provided solution with cost 1017.74
Cbc0012I Integer solution of 1017.7375 found by Reduced search after 0 iterations and 0 nodes (0.10 seconds)
Cbc0013I At root node, 0 cuts changed objective from 859.95356 to 859.95356 in 1 passes
Cbc0014I Cut generator 0 (LazyConstraints) - 0 row cuts average 0.0 elements, 0 column cuts (0 active)  in 0.008 seconds - new frequency is 1
Cbc0014I Cut generator 1 (Probing) - 0 row cuts average 0.0 elements, 0 column cuts (0 active)  in 0.000 seconds - new frequency is -100
Cbc0014I Cut generator 2 (Gomory) - 0 row cuts average 0.0 elements, 0 column cuts (0 active)  in 0.000 seconds - new frequency is -100
Cbc0014I Cut generator 3 (Knapsack) - 0 row cuts average 0.0 elements, 0 column cuts (0 active)  in 0.000 seconds - new frequency is -100
Cbc0014I Cut generator 4 (MixedIntegerRounding2) - 0 row cuts average 0.0 elements, 0 column cuts (0 active)  in 0.000 seconds - new frequency is -100
Cbc0014I Cut generator 5 (FlowCover) - 0 row cuts average 0.0 elements, 0 column cuts (0 active)  in 0.000 seconds - new frequency is -100
Cbc0014I Cut generator 6 (TwoMirCuts) - 0 row cuts average 0.0 elements, 0 column cuts (0 active)  in 0.000 seconds - new frequency is -100
Cbc0014I Cut generator 7 (ZeroHalf) - 0 row cuts average 0.0 elements, 0 column cuts (0 active)  in 0.000 seconds - new frequency is -100
Cbc0010I After 7 nodes, 8 on tree, 1017.7375 best solution, best possible 859.95356 (0.97 seconds)
Cbc0010I After 14 nodes, 12 on tree, 1017.7375 best solution, best possible 859.95356 (1.67 seconds)
Cbc0010I After 25 nodes, 11 on tree, 1017.7375 best solution, best possible 859.95356 (2.45 seconds)
Cbc0010I After 34 nodes, 13 on tree, 1017.7375 best solution, best possible 859.95356 (3.17 seconds)
Cbc0010I After 49 nodes, 21 on tree, 1017.7375 best solution, best possible 859.95356 (3.90 seconds)
Cbc0010I After 76 nodes, 27 on tree, 1017.7375 best solution, best possible 859.95356 (4.61 seconds)
Cbc0010I After 101 nodes, 27 on tree, 1017.7375 best solution, best possible 859.95356 (5.34 seconds)
Cbc0010I After 121 nodes, 25 on tree, 1017.7375 best solution, best possible 859.95356 (6.05 seconds)
Cbc0010I After 134 nodes, 26 on tree, 1017.7375 best solution, best possible 859.95356 (6.87 seconds)
Cbc0010I After 151 nodes, 24 on tree, 1017.7375 best solution, best possible 859.95356 (7.59 seconds)
Cbc0010I After 173 nodes, 24 on tree, 1017.7375 best solution, best possible 859.95356 (8.31 seconds)
Cbc0010I After 195 nodes, 22 on tree, 1017.7375 best solution, best possible 859.95356 (9.03 seconds)
Cbc0010I After 213 nodes, 23 on tree, 1017.7375 best solution, best possible 859.95356 (9.77 seconds)
Cbc0010I After 237 nodes, 19 on tree, 1017.7375 best solution, best possible 859.95356 (10.47 seconds)
Cbc0010I After 256 nodes, 23 on tree, 1017.7375 best solution, best possible 859.95356 (11.24 seconds)
Cbc0010I After 264 nodes, 27 on tree, 1017.7375 best solution, best possible 859.95356 (12.03 seconds)
Cbc0010I After 288 nodes, 27 on tree, 1017.7375 best solution, best possible 859.95356 (12.84 seconds)
Cbc0010I After 312 nodes, 26 on tree, 1017.7375 best solution, best possible 859.95356 (13.58 seconds)
Cbc0010I After 334 nodes, 27 on tree, 1017.7375 best solution, best possible 859.95356 (14.28 seconds)
Cbc0010I After 364 nodes, 20 on tree, 1017.7375 best solution, best possible 859.95356 (14.99 seconds)
Cbc0010I After 385 nodes, 21 on tree, 1017.7375 best solution, best possible 859.95356 (15.70 seconds)
Cbc0010I After 410 nodes, 8 on tree, 1017.7375 best solution, best possible 859.95356 (16.41 seconds)
Cbc0010I After 429 nodes, 10 on tree, 1017.7375 best solution, best possible 859.95356 (17.16 seconds)
Cbc0010I After 449 nodes, 13 on tree, 1017.7375 best solution, best possible 859.95356 (17.87 seconds)
Cbc0010I After 471 nodes, 8 on tree, 1017.7375 best solution, best possible 859.95356 (18.61 seconds)
Cbc0010I After 494 nodes, 10 on tree, 1017.7375 best solution, best possible 859.95356 (19.32 seconds)
Cbc0010I After 518 nodes, 5 on tree, 1017.7375 best solution, best possible 859.95356 (20.08 seconds)
Cbc0010I After 537 nodes, 13 on tree, 1017.7375 best solution, best possible 859.95356 (20.78 seconds)
Cbc0010I After 555 nodes, 20 on tree, 1017.7375 best solution, best possible 859.95356 (21.48 seconds)
Cbc0010I After 575 nodes, 24 on tree, 1017.7375 best solution, best possible 859.95356 (22.23 seconds)
Cbc0010I After 599 nodes, 30 on tree, 1017.7375 best solution, best possible 859.95356 (22.98 seconds)
Cbc0010I After 625 nodes, 28 on tree, 1017.7375 best solution, best possible 859.95356 (23.70 seconds)
Cbc0010I After 659 nodes, 23 on tree, 1017.7375 best solution, best possible 859.95356 (24.45 seconds)
Cbc0010I After 683 nodes, 18 on tree, 1017.7375 best solution, best possible 859.95356 (25.19 seconds)
Cbc0010I After 707 nodes, 11 on tree, 1017.7375 best solution, best possible 859.95356 (25.99 seconds)
Cbc0010I After 727 nodes, 14 on tree, 1017.7375 best solution, best possible 859.95356 (26.75 seconds)
Cbc0010I After 749 nodes, 12 on tree, 1017.7375 best solution, best possible 859.95356 (27.48 seconds)
Cbc0010I After 774 nodes, 9 on tree, 1017.7375 best solution, best possible 859.95356 (28.18 seconds)
Cbc0010I After 804 nodes, 11 on tree, 1017.7375 best solution, best possible 859.95356 (28.89 seconds)
Cbc0010I After 832 nodes, 5 on tree, 1017.7375 best solution, best possible 859.95356 (29.64 seconds)
Cbc0010I After 845 nodes, 11 on tree, 1017.7375 best solution, best possible 859.95356 (30.36 seconds)
Cbc0010I After 858 nodes, 13 on tree, 1017.7375 best solution, best possible 859.95356 (31.07 seconds)
Cbc0010I After 883 nodes, 4 on tree, 1017.7375 best solution, best possible 859.95356 (31.77 seconds)
Cbc0010I After 898 nodes, 1 on tree, 1017.7375 best solution, best possible 869.51905 (32.56 seconds)
Cbc0010I After 909 nodes, 11 on tree, 1017.7375 best solution, best possible 869.51905 (33.27 seconds)
Cbc0010I After 924 nodes, 16 on tree, 1017.7375 best solution, best possible 869.51905 (34.04 seconds)
Cbc0010I After 946 nodes, 20 on tree, 1017.7375 best solution, best possible 869.51905 (34.75 seconds)
Cbc0010I After 977 nodes, 15 on tree, 1017.7375 best solution, best possible 869.51905 (35.51 seconds)
Cbc0010I After 994 nodes, 17 on tree, 1017.7375 best solution, best possible 869.51905 (36.24 seconds)
Cbc0010I After 1018 nodes, 19 on tree, 1017.7375 best solution, best possible 881.26074 (36.94 seconds)
Cbc0010I After 1040 nodes, 15 on tree, 1017.7375 best solution, best possible 881.26074 (37.66 seconds)
Cbc0010I After 1061 nodes, 30 on tree, 1017.7375 best solution, best possible 881.26074 (38.39 seconds)
Cbc0010I After 1093 nodes, 30 on tree, 1017.7375 best solution, best possible 881.26074 (39.09 seconds)
Cbc0010I After 1120 nodes, 36 on tree, 1017.7375 best solution, best possible 881.26074 (39.79 seconds)
Cbc0010I After 1150 nodes, 30 on tree, 1017.7375 best solution, best possible 881.26074 (40.51 seconds)
Cbc0010I After 1187 nodes, 25 on tree, 1017.7375 best solution, best possible 881.26074 (41.22 seconds)
Cbc0010I After 1216 nodes, 23 on tree, 1017.7375 best solution, best possible 881.26074 (41.94 seconds)
Cbc0010I After 1245 nodes, 26 on tree, 1017.7375 best solution, best possible 881.26074 (42.65 seconds)
Cbc0010I After 1273 nodes, 26 on tree, 1017.7375 best solution, best possible 881.26074 (43.36 seconds)
Cbc0010I After 1295 nodes, 25 on tree, 1017.7375 best solution, best possible 881.26074 (44.09 seconds)
Cbc0010I After 1326 nodes, 24 on tree, 1017.7375 best solution, best possible 881.26074 (44.79 seconds)
Cbc0010I After 1354 nodes, 24 on tree, 1017.7375 best solution, best possible 881.26074 (45.49 seconds)
Cbc0010I After 1377 nodes, 24 on tree, 1017.7375 best solution, best possible 881.26074 (46.19 seconds)
Cbc0010I After 1406 nodes, 25 on tree, 1017.7375 best solution, best possible 881.26074 (46.90 seconds)
Cbc0010I After 1435 nodes, 20 on tree, 1017.7375 best solution, best possible 881.26074 (47.60 seconds)
Cbc0010I After 1456 nodes, 34 on tree, 1017.7375 best solution, best possible 881.26074 (48.33 seconds)
Cbc0010I After 1498 nodes, 32 on tree, 1017.7375 best solution, best possible 881.26074 (49.04 seconds)
Cbc0010I After 1529 nodes, 32 on tree, 1017.7375 best solution, best possible 881.26074 (49.74 seconds)
Cbc0010I After 1568 nodes, 29 on tree, 1017.7375 best solution, best possible 881.26074 (50.44 seconds)
Cbc0010I After 1610 nodes, 22 on tree, 1017.7375 best solution, best possible 881.26074 (51.18 seconds)
Cbc0010I After 1647 nodes, 19 on tree, 1017.7375 best solution, best possible 881.26074 (51.92 seconds)
Cbc0010I After 1668 nodes, 32 on tree, 1017.7375 best solution, best possible 881.26074 (52.65 seconds)
Cbc0010I After 1702 nodes, 24 on tree, 1017.7375 best solution, best possible 881.26074 (53.36 seconds)
Cbc0010I After 1734 nodes, 22 on tree, 1017.7375 best solution, best possible 881.26074 (54.11 seconds)
Cbc0010I After 1767 nodes, 19 on tree, 1017.7375 best solution, best possible 881.26074 (54.83 seconds)
Cbc0010I After 1791 nodes, 29 on tree, 1017.7375 best solution, best possible 881.26074 (55.56 seconds)
Cbc0010I After 1830 nodes, 26 on tree, 1017.7375 best solution, best possible 881.26074 (56.30 seconds)
Cbc0010I After 1863 nodes, 25 on tree, 1017.7375 best solution, best possible 881.26074 (57.05 seconds)
Cbc0010I After 1893 nodes, 22 on tree, 1017.7375 best solution, best possible 881.26074 (57.76 seconds)
Cbc0010I After 1924 nodes, 26 on tree, 1017.7375 best solution, best possible 881.26074 (58.48 seconds)
Cbc0010I After 1970 nodes, 21 on tree, 1017.7375 best solution, best possible 881.26074 (59.19 seconds)
Cbc0010I After 2003 nodes, 25 on tree, 1017.7375 best solution, best possible 881.26074 (59.90 seconds)
Cbc0010I After 2037 nodes, 27 on tree, 1017.7375 best solution, best possible 881.26074 (60.68 seconds)
Cbc0010I After 2075 nodes, 23 on tree, 1017.7375 best solution, best possible 881.26074 (61.39 seconds)
Cbc0010I After 2121 nodes, 19 on tree, 1017.7375 best solution, best possible 881.26074 (62.12 seconds)
Cbc0010I After 2160 nodes, 18 on tree, 1017.7375 best solution, best possible 881.26074 (62.84 seconds)
Cbc0010I After 2196 nodes, 20 on tree, 1017.7375 best solution, best possible 881.26074 (63.54 seconds)
Cbc0010I After 2229 nodes, 19 on tree, 1017.7375 best solution, best possible 881.26074 (64.27 seconds)
Cbc0010I After 2258 nodes, 22 on tree, 1017.7375 best solution, best possible 881.26074 (64.98 seconds)
Cbc0010I After 2288 nodes, 20 on tree, 1017.7375 best solution, best possible 881.26074 (65.69 seconds)
Cbc0010I After 2324 nodes, 15 on tree, 1017.7375 best solution, best possible 881.26074 (66.42 seconds)
Cbc0010I After 2356 nodes, 18 on tree, 1017.7375 best solution, best possible 881.26074 (67.13 seconds)
Cbc0010I After 2390 nodes, 20 on tree, 1017.7375 best solution, best possible 881.26074 (67.84 seconds)
Cbc0010I After 2433 nodes, 17 on tree, 1017.7375 best solution, best possible 881.26074 (68.54 seconds)
Cbc0010I After 2460 nodes, 15 on tree, 1017.7375 best solution, best possible 881.26074 (69.24 seconds)
Cbc0010I After 2486 nodes, 17 on tree, 1017.7375 best solution, best possible 881.26074 (69.97 seconds)
Cbc0010I After 2521 nodes, 19 on tree, 1017.7375 best solution, best possible 881.26074 (70.67 seconds)
Cbc0010I After 2565 nodes, 16 on tree, 1017.7375 best solution, best possible 881.26074 (71.39 seconds)
Cbc0010I After 2598 nodes, 21 on tree, 1017.7375 best solution, best possible 881.26074 (72.12 seconds)
Cbc0010I After 2628 nodes, 23 on tree, 1017.7375 best solution, best possible 881.26074 (72.83 seconds)
Cbc0010I After 2663 nodes, 16 on tree, 1017.7375 best solution, best possible 881.26074 (73.57 seconds)
Cbc0010I After 2690 nodes, 17 on tree, 1017.7375 best solution, best possible 881.26074 (74.31 seconds)
Cbc0010I After 2723 nodes, 14 on tree, 1017.7375 best solution, best possible 881.26074 (75.02 seconds)
Cbc0010I After 2755 nodes, 11 on tree, 1017.7375 best solution, best possible 881.26074 (75.76 seconds)
Cbc0010I After 2774 nodes, 8 on tree, 1017.7375 best solution, best possible 881.26074 (76.53 seconds)
Cbc0010I After 2801 nodes, 9 on tree, 1017.7375 best solution, best possible 881.26074 (77.26 seconds)
Cbc0010I After 2822 nodes, 17 on tree, 1017.7375 best solution, best possible 881.26074 (77.98 seconds)
Cbc0010I After 2857 nodes, 14 on tree, 1017.7375 best solution, best possible 881.26074 (78.70 seconds)
Cbc0010I After 2892 nodes, 11 on tree, 1017.7375 best solution, best possible 881.26074 (79.40 seconds)
Cbc0010I After 2921 nodes, 8 on tree, 1017.7375 best solution, best possible 881.26074 (80.12 seconds)
Cbc0010I After 2955 nodes, 8 on tree, 1017.7375 best solution, best possible 881.26074 (80.83 seconds)
Cbc0010I After 2986 nodes, 7 on tree, 1017.7375 best solution, best possible 881.26074 (81.58 seconds)
Cbc0010I After 3012 nodes, 3 on tree, 1017.7375 best solution, best possible 881.26074 (82.30 seconds)
Cbc0010I After 3029 nodes, 20 on tree, 1017.7375 best solution, best possible 881.26074 (83.03 seconds)
Cbc0010I After 3066 nodes, 18 on tree, 1017.7375 best solution, best possible 881.26074 (83.76 seconds)
Cbc0010I After 3102 nodes, 13 on tree, 1017.7375 best solution, best possible 881.26074 (84.49 seconds)
Cbc0010I After 3129 nodes, 20 on tree, 1017.7375 best solution, best possible 881.26074 (85.20 seconds)
Cbc0010I After 3163 nodes, 19 on tree, 1017.7375 best solution, best possible 881.26074 (85.90 seconds)
Cbc0010I After 3195 nodes, 15 on tree, 1017.7375 best solution, best possible 881.26074 (86.67 seconds)
Cbc0010I After 3229 nodes, 18 on tree, 1017.7375 best solution, best possible 881.26074 (87.43 seconds)
Cbc0010I After 3262 nodes, 17 on tree, 1017.7375 best solution, best possible 881.26074 (88.14 seconds)
Cbc0010I After 3303 nodes, 17 on tree, 1017.7375 best solution, best possible 881.26074 (88.86 seconds)
Cbc0010I After 3332 nodes, 18 on tree, 1017.7375 best solution, best possible 881.26074 (89.56 seconds)
Cbc0010I After 3359 nodes, 18 on tree, 1017.7375 best solution, best possible 881.26074 (90.31 seconds)
Cbc0010I After 3394 nodes, 16 on tree, 1017.7375 best solution, best possible 881.26074 (91.01 seconds)
Cbc0010I After 3427 nodes, 13 on tree, 1017.7375 best solution, best possible 881.26074 (91.72 seconds)
Cbc0010I After 3463 nodes, 16 on tree, 1017.7375 best solution, best possible 881.26074 (92.45 seconds)
Cbc0010I After 3509 nodes, 12 on tree, 1017.7375 best solution, best possible 881.26074 (93.17 seconds)
Cbc0010I After 3534 nodes, 12 on tree, 1017.7375 best solution, best possible 881.26074 (93.88 seconds)
Cbc0010I After 3568 nodes, 15 on tree, 1017.7375 best solution, best possible 881.26074 (94.59 seconds)
Cbc0010I After 3601 nodes, 20 on tree, 1017.7375 best solution, best possible 881.26074 (95.31 seconds)
Cbc0010I After 3636 nodes, 13 on tree, 1017.7375 best solution, best possible 881.26074 (96.04 seconds)
Cbc0004I Integer solution of 1017.0912 found after 247137 iterations and 3649 nodes (96.46 seconds)
Cbc0010I After 3658 nodes, 17 on tree, 1017.0912 best solution, best possible 881.26074 (96.76 seconds)
Cbc0010I After 3682 nodes, 25 on tree, 1017.0912 best solution, best possible 881.26074 (97.48 seconds)
Cbc0010I After 3702 nodes, 36 on tree, 1017.0912 best solution, best possible 881.26074 (98.18 seconds)
Cbc0010I After 3725 nodes, 41 on tree, 1017.0912 best solution, best possible 881.26074 (98.89 seconds)
Cbc0010I After 3751 nodes, 45 on tree, 1017.0912 best solution, best possible 881.26074 (99.64 seconds)
Cbc0010I After 3773 nodes, 51 on tree, 1017.0912 best solution, best possible 881.26074 (100.34 seconds)
Cbc0010I After 3801 nodes, 54 on tree, 1017.0912 best solution, best possible 881.26074 (101.09 seconds)
Cbc0010I After 3829 nodes, 65 on tree, 1017.0912 best solution, best possible 881.26074 (101.80 seconds)
Cbc0010I After 3863 nodes, 71 on tree, 1017.0912 best solution, best possible 881.26074 (102.51 seconds)
Cbc0010I After 3895 nodes, 71 on tree, 1017.0912 best solution, best possible 881.26074 (103.21 seconds)
Cbc0010I After 3923 nodes, 77 on tree, 1017.0912 best solution, best possible 881.26074 (103.94 seconds)
Cbc0010I After 3950 nodes, 84 on tree, 1017.0912 best solution, best possible 881.26074 (104.66 seconds)
Cbc0010I After 3980 nodes, 86 on tree, 1017.0912 best solution, best possible 881.26074 (105.38 seconds)
Cbc0010I After 4014 nodes, 83 on tree, 1017.0912 best solution, best possible 881.26074 (106.10 seconds)
Cbc0010I After 4054 nodes, 86 on tree, 1017.0912 best solution, best possible 881.26074 (106.83 seconds)
Cbc0010I After 4085 nodes, 90 on tree, 1017.0912 best solution, best possible 881.26074 (107.54 seconds)
Cbc0010I After 4116 nodes, 94 on tree, 1017.0912 best solution, best possible 881.26074 (108.25 seconds)
Cbc0010I After 4149 nodes, 97 on tree, 1017.0912 best solution, best possible 881.26074 (108.97 seconds)
Cbc0010I After 4180 nodes, 100 on tree, 1017.0912 best solution, best possible 881.26074 (109.68 seconds)
Cbc0010I After 4212 nodes, 101 on tree, 1017.0912 best solution, best possible 881.26074 (110.41 seconds)
Cbc0010I After 4250 nodes, 97 on tree, 1017.0912 best solution, best possible 881.26074 (111.12 seconds)
Cbc0010I After 4279 nodes, 99 on tree, 1017.0912 best solution, best possible 881.26074 (111.84 seconds)
Cbc0010I After 4308 nodes, 104 on tree, 1017.0912 best solution, best possible 881.26074 (112.55 seconds)
Cbc0010I After 4353 nodes, 96 on tree, 1017.0912 best solution, best possible 881.26074 (113.26 seconds)
Cbc0010I After 4384 nodes, 96 on tree, 1017.0912 best solution, best possible 881.26074 (113.96 seconds)
Cbc0010I After 4425 nodes, 93 on tree, 1017.0912 best solution, best possible 881.26074 (114.69 seconds)
Cbc0010I After 4450 nodes, 94 on tree, 1017.0912 best solution, best possible 881.26074 (115.39 seconds)
Cbc0010I After 4477 nodes, 100 on tree, 1017.0912 best solution, best possible 881.26074 (116.11 seconds)
Cbc0010I After 4518 nodes, 97 on tree, 1017.0912 best solution, best possible 881.26074 (116.84 seconds)
Cbc0010I After 4546 nodes, 99 on tree, 1017.0912 best solution, best possible 881.26074 (117.55 seconds)
Cbc0010I After 4583 nodes, 92 on tree, 1017.0912 best solution, best possible 881.26074 (118.26 seconds)
Cbc0010I After 4620 nodes, 86 on tree, 1017.0912 best solution, best possible 881.26074 (118.96 seconds)
Cbc0010I After 4662 nodes, 82 on tree, 1017.0912 best solution, best possible 881.26074 (119.66 seconds)
Cbc0010I After 4691 nodes, 87 on tree, 1017.0912 best solution, best possible 881.26074 (120.37 seconds)
Cbc0004I Integer solution of 1016.4782 found after 313111 iterations and 4704 nodes (120.73 seconds)
Cbc0010I After 4726 nodes, 84 on tree, 1016.4782 best solution, best possible 881.26074 (121.10 seconds)
Cbc0010I After 4760 nodes, 81 on tree, 1016.4782 best solution, best possible 881.26074 (121.80 seconds)
Cbc0010I After 4796 nodes, 78 on tree, 1016.4782 best solution, best possible 881.26074 (122.52 seconds)
Cbc0010I After 4833 nodes, 81 on tree, 1016.4782 best solution, best possible 881.26074 (123.23 seconds)
Cbc0010I After 4871 nodes, 80 on tree, 1016.4782 best solution, best possible 881.26074 (123.94 seconds)
Cbc0010I After 4909 nodes, 73 on tree, 1016.4782 best solution, best possible 881.26074 (124.64 seconds)
Cbc0010I After 4948 nodes, 69 on tree, 1016.4782 best solution, best possible 881.26074 (125.38 seconds)
Cbc0010I After 4979 nodes, 65 on tree, 1016.4782 best solution, best possible 881.26074 (126.09 seconds)
Cbc0010I After 5023 nodes, 56 on tree, 1016.4782 best solution, best possible 881.26074 (126.82 seconds)
Cbc0010I After 5069 nodes, 46 on tree, 1016.4782 best solution, best possible 881.26074 (127.57 seconds)
Cbc0010I After 5100 nodes, 44 on tree, 1016.4782 best solution, best possible 881.26074 (128.28 seconds)
Cbc0010I After 5140 nodes, 41 on tree, 1016.4782 best solution, best possible 881.26074 (129.00 seconds)
Cbc0010I After 5178 nodes, 40 on tree, 1016.4782 best solution, best possible 881.26074 (129.75 seconds)
Cbc0010I After 5212 nodes, 38 on tree, 1016.4782 best solution, best possible 881.26074 (130.48 seconds)
Cbc0010I After 5242 nodes, 36 on tree, 1016.4782 best solution, best possible 881.26074 (131.19 seconds)
Cbc0010I After 5286 nodes, 27 on tree, 1016.4782 best solution, best possible 881.26074 (131.90 seconds)
Cbc0010I AfteModell wird erstellt...
Suche Startlösung...
None
Suche optimale Lösung...
OptimizationStatus.OPTIMAL
C:\Users\Philip\Documents\programmieren\python\bwinf41-2\weniger-krumme-touren\beispiele\random\40\402.txt
Lösung gefunden!
r 5322 nodes, 24 on tree, 1016.4782 best solution, best possible 881.26074 (132.61 seconds)
Cbc0010I After 5358 nodes, 21 on tree, 1016.4782 best solution, best possible 881.26074 (133.34 seconds)
Cbc0010I After 5417 nodes, 6 on tree, 1016.4782 best solution, best possible 881.26074 (134.05 seconds)
Cbc0010I After 5443 nodes, 14 on tree, 1016.4782 best solution, best possible 912.6531 (134.77 seconds)
Cbc0010I After 5472 nodes, 14 on tree, 1016.4782 best solution, best possible 912.6531 (135.47 seconds)
Cbc0010I After 5507 nodes, 12 on tree, 1016.4782 best solution, best possible 912.6531 (136.21 seconds)
Cbc0010I After 5547 nodes, 10 on tree, 1016.4782 best solution, best possible 912.6531 (136.94 seconds)
Cbc0010I After 5590 nodes, 9 on tree, 1016.4782 best solution, best possible 912.6531 (137.66 seconds)
Cbc0010I After 5641 nodes, 9 on tree, 1016.4782 best solution, best possible 912.6531 (138.36 seconds)
Cbc0010I After 5670 nodes, 11 on tree, 1016.4782 best solution, best possible 912.6531 (139.07 seconds)
Cbc0010I After 5709 nodes, 8 on tree, 1016.4782 best solution, best possible 912.6531 (139.80 seconds)
Cbc0010I After 5742 nodes, 9 on tree, 1016.4782 best solution, best possible 912.6531 (140.54 seconds)
Cbc0010I After 5784 nodes, 9 on tree, 1016.4782 best solution, best possible 912.6531 (141.25 seconds)
Cbc0010I After 5815 nodes, 10 on tree, 1016.4782 best solution, best possible 912.6531 (141.96 seconds)
Cbc0010I After 5858 nodes, 5 on tree, 1016.4782 best solution, best possible 912.6531 (142.70 seconds)
Cbc0010I After 5907 nodes, 2 on tree, 1016.4782 best solution, best possible 912.6531 (143.42 seconds)
Cbc0010I After 5949 nodes, 2 on tree, 1016.4782 best solution, best possible 961.00766 (144.16 seconds)
Cbc0001I Search completed - best objective 1016.478236626135, took 377059 iterations and 5982 nodes (144.62 seconds)
Cbc0032I Strong branching done 16064 times (271981 iterations), fathomed 1024 nodes and fixed 3038 variables
Cbc0035I Maximum depth 47, 235685 variables fixed on reduced cost
Total time (CPU seconds):       144.66   (Wallclock seconds):       144.66

